<number of tasks>
20

<cycle time>
1000

<order strength>
0,505


<task times>
1 537
2 596
3 410
4 379
5 555
6 680
7 350
8 342
9 494
10 388
11 506
12 543
13 412
14 387
15 410
16 578
17 593
18 493
19 642
20 528

<precedence relations>
1,4
1,7
2,6
3,5
3,8
3,11
4,15
5,15
6,9
6,10
7,11
7,12
8,10
8,13
9,15
10,14
10,15
11,13
13,15
14,16
15,17
15,18
15,19
15,20

<end>
